(set-logic HORN)

(declare-datatypes ((listOfInt 0)) (((conslistOfInt  (headlistOfInt Int) (taillistOfInt listOfInt)) (nillistOfInt ))))

(declare-fun |adt_new1| ( listOfInt listOfInt Bool ) Bool)
(declare-fun |append| ( listOfInt listOfInt listOfInt ) Bool)
(declare-fun |ff| ( ) Bool)

(assert
  (forall ( (A listOfInt) (B Int) (C listOfInt) (D Bool) (v_4 listOfInt) ) 
    (=>
      (and
        (and (not D) (= A (conslistOfInt B C)) (= v_4 nillistOfInt))
      )
      (adt_new1 v_4 A D)
    )
  )
)
(assert
  (forall ( (A listOfInt) (B Int) (C listOfInt) (D Bool) (v_4 listOfInt) ) 
    (=>
      (and
        (and (not D) (= A (conslistOfInt B C)) (= v_4 nillistOfInt))
      )
      (adt_new1 A v_4 D)
    )
  )
)
(assert
  (forall ( (A Bool) (v_1 listOfInt) (v_2 listOfInt) ) 
    (=>
      (and
        (and (= A true) (= v_1 nillistOfInt) (= v_2 nillistOfInt))
      )
      (adt_new1 v_1 v_2 A)
    )
  )
)
(assert
  (forall ( (A listOfInt) (B listOfInt) (C Int) (D listOfInt) (E Int) (F listOfInt) (G Bool) ) 
    (=>
      (and
        (and (= B (conslistOfInt C D))
     (>= (+ E (* (- 1) C)) 1)
     (not G)
     (= A (conslistOfInt E F)))
      )
      (adt_new1 B A G)
    )
  )
)
(assert
  (forall ( (A listOfInt) (B listOfInt) (C Int) (D listOfInt) (E Int) (F listOfInt) (G Bool) ) 
    (=>
      (and
        (and (= B (conslistOfInt C D))
     (<= (+ E (* (- 1) C)) (- 1))
     (not G)
     (= A (conslistOfInt E F)))
      )
      (adt_new1 B A G)
    )
  )
)
(assert
  (forall ( (A listOfInt) (B listOfInt) (C Int) (D listOfInt) (E listOfInt) (F Bool) ) 
    (=>
      (and
        (adt_new1 D E F)
        (and (= A (conslistOfInt C E)) (= B (conslistOfInt C D)))
      )
      (adt_new1 B A F)
    )
  )
)
(assert
  (forall ( (A listOfInt) (v_1 listOfInt) (v_2 listOfInt) ) 
    (=>
      (and
        (and true (= v_1 nillistOfInt) (= v_2 A))
      )
      (append v_1 A v_2)
    )
  )
)
(assert
  (forall ( (A listOfInt) (B listOfInt) (C Int) (D listOfInt) (E listOfInt) (F listOfInt) ) 
    (=>
      (and
        (append D E F)
        (and (= A (conslistOfInt C F)) (= B (conslistOfInt C D)))
      )
      (append B E A)
    )
  )
)
(assert
  (forall ( (A listOfInt) (B listOfInt) (C Bool) (D listOfInt) (E Int) (F listOfInt) (G listOfInt) (H listOfInt) (I listOfInt) ) 
    (=>
      (and
        (adt_new1 H I C)
        (append D B F)
        (append F G H)
        (append D A I)
        (and (= B (conslistOfInt E nillistOfInt)) (= C true) (= A (conslistOfInt E G)))
      )
      ff
    )
  )
)
(assert
  (forall ( (CHC_COMP_UNUSED Bool) ) 
    (=>
      (and
        ff
        true
      )
      false
    )
  )
)

(check-sat)
(exit)
